9
0 83 93 129 5 151 169 135 114 
83 0 40 53 62 64 91 116 93  
93 40 0 42 42 81 54 44 58
129 53 42 0 46 72 65 70  88
133 11 0 9 35  61  55  62  82
139 64 49 11 9 0  63  71  90
151  91  59   39   0  26  34  52  71
169 116    61  65  26   0  37  59  75
54  65  55  63  34  37   0  22  39

